&control
    calculation = 'nscf',
    prefix='benzene.C01-XCH',
    pseudo_dir = '/global/home/groups-sw/nano/software/sl-7.x86_64/MBXAS/XCH_pseudos',
    outdir='./',
    wf_collect =.TRUE.,
/
&system
    ibrav=14 , a=14.31332 , b=14.98058 , c=10.00000
    nat=12, ntyp=3, tot_charge=0,
    nbnd=570, occupations='smearing', smearing='fd', degauss=0.0019,
    ecutwfc=25, ecutrho=200,
    
    
/
&electrons
    diagonalization='david',
            diago_full_acc=.false.,
    conv_thr=1.0d-8,
/
ATOMIC_SPECIES
C 12.00 C.pbe-van-yufengl.UPF
H 1.0079 H.pbe-van_bm.UPF
CX 12.00 C.pbe-van-dgp-1s1.UPF
ATOMIC_POSITIONS angstrom
  CX        0.00000        1.40272        0.00000
  H        0.00000        2.49029        0.00000
  C       -1.21479        0.70136        0.00000
  H       -2.15666        1.24515        0.00000
  C       -1.21479       -0.70136        0.00000
  H       -2.15666       -1.24515        0.00000
  C        0.00000       -1.40272        0.00000
  H        0.00000       -2.49029        0.00000
  C        1.21479       -0.70136        0.00000
  H        2.15666       -1.24515        0.00000
  C        1.21479        0.70136        0.00000
  H        2.15666        1.24515        0.00000
K_POINTS automatic
	1 1 1 0 0 0

