&input
  prefix='benzene_opt',
  outdir='./',
  outfile='benzene.xas.5',
  readcorerep=.true., eigvec_output=.true., proj_output=.true.
/
K_POINTS
  automatic
  5 5 5 0 0 0
COREREP
  2 12
  1
  1  1  '/global/home/groups-sw/nano/software/sl-7.x86_64/MBXAS/XCH_pseudos/C.pbe-van-yufengl.pos'
