&input
  prefix='benzene',
  outdir='./',
  trace_tol=1.d-8,
/
