&input
  prefix='v2o5.O49-FCH',
  outdir='./',
  trace_tol=1.d-8,
/
