&input
  prefix='tio2.O25-FCH',
  outdir='./',
  trace_tol=1.d-8,
/
