&input
  prefix='cro2',
  outdir='./',
  trace_tol=1.d-8,
/
