&control
    calculation = 'nscf',
    prefix='cro2',
    pseudo_dir = '/global/home/groups-sw/nano/software/sl-7.x86_64/MBXAS/XCH_pseudos',
    outdir='./',
    wf_collect =.TRUE.,
/
&system
    ibrav=14 , a=8.8420 , b=8.8420 , c=8.7510 , cosab=0.000000000000 , cosac=0.000000000000 , cosbc=0.000000000000
    nat=72, ntyp=2, tot_charge=0,
    nbnd=1122, occupations='smearing', smearing='fd', degauss=0.0019,
    ecutwfc=30, ecutrho=300,
        nspin=2
    starting_magnetization(1)=1.0,
    starting_magnetization(2)=0.0,
    lda_plus_u=.true., Hubbard_U(1)=3.5
/
&electrons
    diagonalization='david',
            diago_full_acc=.false.,
    conv_thr=1.0d-8,
/
ATOMIC_SPECIES
Cr 52.00 Cr.pbe-van-yufengl.UPF
O 15.999 O.pbe-van_bm.UPF
ATOMIC_POSITIONS angstrom
Cr  0.0000000000000   0.0000000000000   0.0000000000000
Cr  0.0000000000000   0.0000000000000   2.9170000553000
Cr  0.0000000000000   0.0000000000000   5.8340001106000
Cr  0.0000000000000   4.4210000038000   0.0000000000000
Cr  0.0000000000000   4.4210000038000   2.9170000553000
Cr  0.0000000000000   4.4210000038000   5.8340001106000
Cr  4.4210000038000   0.0000000000000   0.0000000000000
Cr  4.4210000038000   0.0000000000000   2.9170000553000
Cr  4.4210000038000   0.0000000000000   5.8340001106000
Cr  4.4210000038000   4.4210000038000   0.0000000000000
Cr  4.4210000038000   4.4210000038000   2.9170000553000
Cr  4.4210000038000   4.4210000038000   5.8340001106000
Cr  2.2105000019000   2.2105000019000   1.4585000276500
Cr  2.2105000019000   2.2105000019000   4.3755000829500
Cr  2.2105000019000   2.2105000019000   7.2925001382500
Cr  2.2105000019000   6.6315000057000   1.4585000276500
Cr  2.2105000019000   6.6315000057000   4.3755000829500
Cr  2.2105000019000   6.6315000057000   7.2925001382500
Cr  6.6315000057000   2.2105000019000   1.4585000276500
Cr  6.6315000057000   2.2105000019000   4.3755000829500
Cr  6.6315000057000   2.2105000019000   7.2925001382500
Cr  6.6315000057000   6.6315000057000   1.4585000276500
Cr  6.6315000057000   6.6315000057000   4.3755000829500
Cr  6.6315000057000   6.6315000057000   7.2925001382500
O  1.3307209967228   1.3307209967228   0.0000000000000
O  1.3307209967228   1.3307209967228   2.9170000553000
O  1.3307209967228   1.3307209967228   5.8340001106000
O  1.3307209967228   5.7517210005228   0.0000000000000
O  1.3307209967228   5.7517210005228   2.9170000553000
O  1.3307209967228   5.7517210005228   5.8340001106000
O  5.7517210005228   1.3307209967228   0.0000000000000
O  5.7517210005228   1.3307209967228   2.9170000553000
O  5.7517210005228   1.3307209967228   5.8340001106000
O  5.7517210005228   5.7517210005228   0.0000000000000
O  5.7517210005228   5.7517210005228   2.9170000553000
O  5.7517210005228   5.7517210005228   5.8340001106000
O  3.0902790070772   3.0902790070772   0.0000000000000
O  3.0902790070772   3.0902790070772   2.9170000553000
O  3.0902790070772   3.0902790070772   5.8340001106000
O  3.0902790070772   7.5112790108772   0.0000000000000
O  3.0902790070772   7.5112790108772   2.9170000553000
O  3.0902790070772   7.5112790108772   5.8340001106000
O  7.5112790108772   3.0902790070772   0.0000000000000
O  7.5112790108772   3.0902790070772   2.9170000553000
O  7.5112790108772   3.0902790070772   5.8340001106000
O  7.5112790108772   7.5112790108772   0.0000000000000
O  7.5112790108772   7.5112790108772   2.9170000553000
O  7.5112790108772   7.5112790108772   5.8340001106000
O  0.8797790051772   3.5412209986228   1.4585000276500
O  0.8797790051772   3.5412209986228   4.3755000829500
O  0.8797790051772   3.5412209986228   7.2925001382500
O  0.8797790051772   7.9622210024228   1.4585000276500
O  0.8797790051772   7.9622210024228   4.3755000829500
O  0.8797790051772   7.9622210024228   7.2925001382500
O  5.3007790089772   3.5412209986228   1.4585000276500
O  5.3007790089772   3.5412209986228   4.3755000829500
O  5.3007790089772   3.5412209986228   7.2925001382500
O  5.3007790089772   7.9622210024228   1.4585000276500
O  5.3007790089772   7.9622210024228   4.3755000829500
O  5.3007790089772   7.9622210024228   7.2925001382500
O  3.5412209986228   0.8797790051772   1.4585000276500
O  3.5412209986228   0.8797790051772   4.3755000829500
O  3.5412209986228   0.8797790051772   7.2925001382500
O  3.5412209986228   5.3007790089772   1.4585000276500
O  3.5412209986228   5.3007790089772   4.3755000829500
O  3.5412209986228   5.3007790089772   7.2925001382500
O  7.9622210024228   0.8797790051772   1.4585000276500
O  7.9622210024228   0.8797790051772   4.3755000829500
O  7.9622210024228   0.8797790051772   7.2925001382500
O  7.9622210024228   5.3007790089772   1.4585000276500
O  7.9622210024228   5.3007790089772   4.3755000829500
O  7.9622210024228   5.3007790089772   7.2925001382500
K_POINTS automatic
	1 1 1 0 0 0

