&input
  prefix='cro2_opt',
  outdir='./',
  outfile='cro2.xas.5',
  readcorerep=.true., eigvec_output=.true., proj_output=.true.
/
K_POINTS
  automatic
  5 5 5 0 0 0
COREREP
  2 72
  1
  2  25  '/global/home/groups-sw/nano/software/sl-7.x86_64/MBXAS/XCH_pseudos/O.pbe-van_bm.pos'
