&input
  prefix='acetic.O2-XCH',
  outdir='./',
  trace_tol=1.d-8,
/
