&input
  prefix='sio2.O25-XCH',
  outdir='./',
  trace_tol=1.d-8,
/
