&control
    calculation = 'nscf',
    prefix='sio2.O25-XCH',
    pseudo_dir = '/global/home/groups-sw/nano/software/sl-7.x86_64/MBXAS/XCH_pseudos',
    outdir='./',
    wf_collect =.TRUE.,
/
&system
    ibrav=14 , a=9.8230 , b=9.8230 , c=10.8076 , cosab=-0.499999995348 , cosac=0.000000000000 , cosbc=0.000000000000
    nat=72, ntyp=3, tot_charge=0,
    nbnd=690, occupations='smearing', smearing='fd', degauss=0.0019,
    ecutwfc=25, ecutrho=200,
    
    
/
&electrons
    diagonalization='david',
            diago_full_acc=.false.,
    conv_thr=1.0d-8,
/
ATOMIC_SPECIES
O 15.999 O.pbe-van_bm.UPF
Si 28.086 Si.pbe-n-van.UPF
OX 15.999 O.pbe-van-dgp-1s1.UPF
ATOMIC_POSITIONS angstrom
Si  2.3069315834474   0.0000000000000   0.9006333639369
Si  2.3069315834474   0.0000000000000   6.3044333746369
Si -0.1488184051526   4.2534837509000   0.9006333639369
Si -0.1488184051526   4.2534837509000   6.3044333746369
Si  7.2184315605474   0.0000000000000   0.9006333639369
Si  7.2184315605474   0.0000000000000   6.3044333746369
Si  4.7626815719474   4.2534837509000   0.9006333639369
Si  4.7626815719474   4.2534837509000   6.3044333746369
Si -1.1534657917472   1.9978613560791   4.5031665657061
Si -1.1534657917472   1.9978613560791   9.9069665764061
Si -3.6092157803472   6.2513451069791   4.5031665657061
Si -3.6092157803472   6.2513451069791   9.9069665764061
Si  3.7580341853528   1.9978613560791   4.5031665657061
Si  3.7580341853528   1.9978613560791   9.9069665764061
Si  1.3022841967528   6.2513451069791   4.5031665657061
Si  1.3022841967528   6.2513451069791   9.9069665764061
Si  1.3022842704723   2.2556225224254   2.7019000053500
Si  1.3022842704723   2.2556225224254   8.1057000160500
Si -1.1534657181277   6.5091062733254   2.7019000053500
Si -1.1534657181277   6.5091062733254   8.1057000160500
Si  6.2137842475723   2.2556225224254   2.7019000053500
Si  6.2137842475723   2.2556225224254   8.1057000160500
Si  3.7580342589723   6.5091062733254   2.7019000053500
Si  3.7580342589723   6.5091062733254   8.1057000160500
OX  1.3737466000638   1.1365308284661   1.5427848490168
O  1.3737466000638   1.1365308284661   6.9465848597169
O -1.0820033885362   5.3900145793661   1.5427848490168
O -1.0820033885362   5.3900145793661   6.9465848597169
O  6.2852465771638   1.1365308284661   1.5427848490168
O  6.2852465771638   1.1365308284661   6.9465848597169
O  3.8294965885638   5.3900145793661   1.5427848490168
O  3.8294965885638   5.3900145793661   6.9465848597169
O  3.2403621098844   0.6214340355553   5.1453182993608
O  3.2403621098844   0.6214340355553  10.5491183100608
O  0.7846121212844   4.8749177864553   5.1453182993608
O  0.7846121212844   4.8749177864553  10.5491183100608
O  8.1518620869844   0.6214340355553   5.1453182993608
O  8.1518620869844   0.6214340355553  10.5491183100608
O  5.6961120983844   4.8749177864553   5.1453182993608
O  5.6961120983844   4.8749177864553  10.5491183100608
O  2.7531411868908   2.4955187592741   3.3440514093729
O  2.7531411868908   2.4955187592741   8.7478514200729
O  0.2973911982908   6.7490025101741   3.3440514093729
O  0.2973911982908   6.7490025101741   8.7478514200729
O  7.6646411639908   2.4955187592741   3.3440514093729
O  7.6646411639908   2.4955187592741   8.7478514200729
O  5.2088911753908   6.7490025101741   3.3440514093729
O  5.2088911753908   6.7490025101741   8.7478514200729
O  0.2973912695662   1.7579648682748   3.8610151616832
O  0.2973912695662   1.7579648682748   9.2648151723832
O -2.1583587190338   6.0114486191748   3.8610151616832
O -2.1583587190338   6.0114486191748   9.2648151723832
O  5.2088912466662   1.7579648682748   3.8610151616832
O  5.2088912466662   1.7579648682748   9.2648151723832
O  2.7531412580662   6.0114486191748   3.8610151616832
O  2.7531412580662   6.0114486191748   9.2648151723832
O -1.0820033934210   3.1169529224339   0.2584818140114
O -1.0820033934210   3.1169529224339   5.6622818247114
O -3.5377533820210   7.3704366733339   0.2584818140114
O -3.5377533820210   7.3704366733339   5.6622818247114
O  3.8294965836790   3.1169529224339   0.2584818140114
O  3.8294965836790   3.1169529224339   5.6622818247114
O  1.3737465950790   7.3704366733339   0.2584818140114
O  1.3737465950790   7.3704366733339   5.6622818247114
O  0.7846120476265   3.6320495877402   2.0597484392131
O  0.7846120476265   3.6320495877402   7.4635484499131
O -1.6711379409735   7.8855333386402   2.0597484392131
O -1.6711379409735   7.8855333386402   7.4635484499131
O  5.6961120247265   3.6320495877402   2.0597484392131
O  5.6961120247265   3.6320495877402   7.4635484499131
O  3.2403620361265   7.8855333386402   2.0597484392131
O  3.2403620361265   7.8855333386402   7.4635484499131
K_POINTS automatic
	1 1 1 0 0 0

