&input
    prefix='sio2.O25-XCH_opt',
    outdir='./',
    updatepp=.false.,
    ncpp=.false.,
    pseudo_dir='/global/home/groups-sw/nano/software/sl-7.x86_64/MBXAS/XCH_pseudos',
    
/
K_POINTS
    2 2 2 0 0 0
    
