&input
  prefix='sio2.O25-XCH_opt',
  outdir='./',
  outfile='sio2.O25-XCH.xas.5',
  readcorerep=.true., eigvec_output=.true., proj_output=.true.
/
K_POINTS
  automatic
  5 5 5 0 0 0
COREREP
  3 72
  1
  3  25  '/global/home/groups-sw/nano/software/sl-7.x86_64/MBXAS/XCH_pseudos/O.pbe-van-dgp-1s1.pos'
