&input
  prefix='acetic',
  outdir='./',
  trace_tol=1.d-8,
/
