&input
  prefix='tio2',
  outdir='./',
  trace_tol=1.d-8,
/
