&input
  prefix='v2o5',
  outdir='./',
  trace_tol=1.d-8,
/
