&input
  prefix='v2o5.O25-FCH',
  outdir='./',
  trace_tol=1.d-8,
/
