&control
    calculation='scf',
    prefix='v2o5.O25-FCH',
    pseudo_dir='/global/home/groups-sw/nano/software/sl-7.x86_64/MBXAS/XCH_pseudos',
    outdir='./',
    wf_collect =.TRUE.,
    restart_mode='from_scratch',
    tstress=.true., tprnfor=.true.
/
&system
    ibrav=14 , a=11.5030 , b=10.6710 , c=8.7380 , cosab=0.000000000000 , cosac=0.000000000000 , cosbc=0.000000000000
    nat=84, ntyp=3, tot_charge=1.0,
    nbnd=403, occupations='smearing', smearing='fd', degauss=0.0019,
    ecutwfc =30, ecutrho=300,
        nspin=2
    starting_magnetization(2)=0.01,
    starting_magnetization(3)=0.0,
    lda_plus_u=.true., Hubbard_U(2)=3.1
/
&electrons
    diagonalization='david'
    conv_thr=1.0d-8,
    mixing_beta=0.3,
    mixing_mode='local-TF',
    electron_maxstep=200,
    diago_thr_init=,
            diago_full_acc=.false.,
    startingpot='atomic',
            mixing_fixed_ns=0
/
ATOMIC_SPECIES
O 15.999 O.pbe-van_bm.UPF
V 50.94 V.pbe-van-yufengl.UPF
OX 15.999 O.pbe-van-dgp-1s1.UPF
ATOMIC_POSITIONS angstrom
V  1.7062037670530   0.0000000000000   3.8973880415980
V  1.7062037670530   0.0000000000000   8.2663880415980
V  1.7062037670530   3.5570000000000   3.8973880415980
V  1.7062037670530   3.5570000000000   8.2663880415980
V  1.7062037670530   7.1140000000000   3.8973880415980
V  1.7062037670530   7.1140000000000   8.2663880415980
V  4.0452957613240   1.7785000000000   0.4716064010340
V  4.0452957613240   1.7785000000000   4.8406064010340
V  4.0452957613240   5.3355000000000   0.4716064010340
V  4.0452957613240   5.3355000000000   4.8406064010340
V  4.0452957613240   8.8925000000000   0.4716064010340
V  4.0452957613240   8.8925000000000   4.8406064010340
V  7.4577049288560   1.7785000000000   0.4715998213200
V  7.4577049288560   1.7785000000000   4.8405998213200
V  7.4577049288560   5.3355000000000   0.4715998213200
V  7.4577049288560   5.3355000000000   4.8405998213200
V  7.4577049288560   8.8925000000000   0.4715998213200
V  7.4577049288560   8.8925000000000   4.8405998213200
V  9.7967955427670   0.0000000000000   3.8973931533280
V  9.7967955427670   0.0000000000000   8.2663931533280
V  9.7967955427670   3.5570000000000   3.8973931533280
V  9.7967955427670   3.5570000000000   8.2663931533280
V  9.7967955427670   7.1140000000000   3.8973931533280
V  9.7967955427670   7.1140000000000   8.2663931533280
OX  2.0859091352940   1.7785000000000   4.3669355033230
O  2.0859091352940   1.7785000000000   8.7359355033230
O  2.0859091352940   5.3355000000000   4.3669355033230
O  2.0859091352940   5.3355000000000   8.7359355033230
O  2.0859091352940   8.8925000000000   4.3669355033230
O  2.0859091352940   8.8925000000000   8.7359355033230
O  3.6655903930830   0.0000000000000   0.0020648680420
O  3.6655903930830   0.0000000000000   4.3710648680420
O  3.6655903930830   3.5570000000000   0.0020648680420
O  3.6655903930830   3.5570000000000   4.3710648680420
O  3.6655903930830   7.1140000000000   0.0020648680420
O  3.6655903930830   7.1140000000000   4.3710648680420
O  7.8374099750130   0.0000000000000   0.0020648986250
O  7.8374099750130   0.0000000000000   4.3710648986250
O  7.8374099750130   3.5570000000000   0.0020648986250
O  7.8374099750130   3.5570000000000   4.3710648986250
O  7.8374099750130   7.1140000000000   0.0020648986250
O  7.8374099750130   7.1140000000000   4.3710648986250
O  9.4170910487540   1.7785000000000   4.3669359140090
O  9.4170910487540   1.7785000000000   8.7359359140090
O  9.4170910487540   5.3355000000000   4.3669359140090
O  9.4170910487540   5.3355000000000   8.7359359140090
O  9.4170910487540   8.8925000000000   4.3669359140090
O  9.4170910487540   8.8925000000000   8.7359359140090
O  9.8382120137460   0.0000000000000   2.3063320815440
O  9.8382120137460   0.0000000000000   6.6753320815440
O  9.8382120137460   3.5570000000000   2.3063320815440
O  9.8382120137460   3.5570000000000   6.6753320815440
O  9.8382120137460   7.1140000000000   2.3063320815440
O  9.8382120137460   7.1140000000000   6.6753320815440
O  7.4162875606430   1.7785000000000   2.0626737073810
O  7.4162875606430   1.7785000000000   6.4316737073810
O  7.4162875606430   5.3355000000000   2.0626737073810
O  7.4162875606430   5.3355000000000   6.4316737073810
O  7.4162875606430   8.8925000000000   2.0626737073810
O  7.4162875606430   8.8925000000000   6.4316737073810
O  4.0867122323030   1.7785000000000   2.0626685781750
O  4.0867122323030   1.7785000000000   6.4316685781750
O  4.0867122323030   5.3355000000000   2.0626685781750
O  4.0867122323030   5.3355000000000   6.4316685781750
O  4.0867122323030   8.8925000000000   2.0626685781750
O  4.0867122323030   8.8925000000000   6.4316685781750
O  5.7515002760720   1.7785000000000   4.3583304607310
O  5.7515002760720   1.7785000000000   8.7273304607310
O  5.7515002760720   5.3355000000000   4.3583304607310
O  5.7515002760720   5.3355000000000   8.7273304607310
O  5.7515002760720   8.8925000000000   4.3583304607310
O  5.7515002760720   8.8925000000000   8.7273304607310
O -0.0000001840480   0.0000000000000   0.0106700329660
O -0.0000001840480   0.0000000000000   4.3796700329660
O -0.0000001840480   3.5570000000000   0.0106700329660
O -0.0000001840480   3.5570000000000   4.3796700329660
O -0.0000001840480   7.1140000000000   0.0106700329660
O -0.0000001840480   7.1140000000000   4.3796700329660
O  1.6647875261340   0.0000000000000   2.3063361709280
O  1.6647875261340   0.0000000000000   6.6753361709280
O  1.6647875261340   3.5570000000000   2.3063361709280
O  1.6647875261340   3.5570000000000   6.6753361709280
O  1.6647875261340   7.1140000000000   2.3063361709280
O  1.6647875261340   7.1140000000000   6.6753361709280
K_POINTS automatic
2 2 2 0 0 0

