&control
    calculation='scf',
    prefix='tio2.O25-FCH',
    pseudo_dir='/global/home/groups-sw/nano/software/sl-7.x86_64/MBXAS/XCH_pseudos',
    outdir='./',
    wf_collect =.TRUE.,
    restart_mode='from_scratch',
    tstress=.true., tprnfor=.true.
/
&system
    ibrav=14 , a=9.1776 , b=9.1776 , c=8.8727 , cosab=0.000000000000 , cosac=0.000000000000 , cosbc=0.000000000000
    nat=72, ntyp=3, tot_charge=1.0,
    nbnd=345, occupations='smearing', smearing='fd', degauss=0.0019,
    ecutwfc =30, ecutrho=300,
        nspin=2
    starting_magnetization(2)=0.01,
    starting_magnetization(3)=0.0,
    
/
&electrons
    diagonalization='david'
    conv_thr=1.0d-8,
    mixing_beta=0.3,
    mixing_mode='local-TF',
    electron_maxstep=200,
    diago_thr_init=,
            diago_full_acc=.false.,
    startingpot='atomic',
            mixing_fixed_ns=0
/
ATOMIC_SPECIES
O 15.999 O.pbe-van_bm.UPF
Ti 47.867 Ti.pbe-van-yufengl.UPF
OX 15.999 O.pbe-van-dgp-1s1.UPF
ATOMIC_POSITIONS angstrom
Ti  0.0000000000000   0.0000000000000   0.0000000000000
Ti  0.0000000000000   0.0000000000000   2.9575600624000
Ti  0.0000000000000   0.0000000000000   5.9151201248000
Ti  0.0000000000000   4.5887799263000   0.0000000000000
Ti  0.0000000000000   4.5887799263000   2.9575600624000
Ti  0.0000000000000   4.5887799263000   5.9151201248000
Ti  4.5887799263000   0.0000000000000   0.0000000000000
Ti  4.5887799263000   0.0000000000000   2.9575600624000
Ti  4.5887799263000   0.0000000000000   5.9151201248000
Ti  4.5887799263000   4.5887799263000   0.0000000000000
Ti  4.5887799263000   4.5887799263000   2.9575600624000
Ti  4.5887799263000   4.5887799263000   5.9151201248000
Ti  2.2943899631500   2.2943899631500   1.4787800312000
Ti  2.2943899631500   2.2943899631500   4.4363400936000
Ti  2.2943899631500   2.2943899631500   7.3939001560000
Ti  2.2943899631500   6.8831698894500   1.4787800312000
Ti  2.2943899631500   6.8831698894500   4.4363400936000
Ti  2.2943899631500   6.8831698894500   7.3939001560000
Ti  6.8831698894500   2.2943899631500   1.4787800312000
Ti  6.8831698894500   2.2943899631500   4.4363400936000
Ti  6.8831698894500   2.2943899631500   7.3939001560000
Ti  6.8831698894500   6.8831698894500   1.4787800312000
Ti  6.8831698894500   6.8831698894500   4.4363400936000
Ti  6.8831698894500   6.8831698894500   7.3939001560000
OX  1.3873257754641   1.3873257754641   0.0000000000000
O  1.3873257754641   1.3873257754641   2.9575600624000
O  1.3873257754641   1.3873257754641   5.9151201248000
O  1.3873257754641   5.9761057017641   0.0000000000000
O  1.3873257754641   5.9761057017641   2.9575600624000
O  1.3873257754641   5.9761057017641   5.9151201248000
O  5.9761057017641   1.3873257754641   0.0000000000000
O  5.9761057017641   1.3873257754641   2.9575600624000
O  5.9761057017641   1.3873257754641   5.9151201248000
O  5.9761057017641   5.9761057017641   0.0000000000000
O  5.9761057017641   5.9761057017641   2.9575600624000
O  5.9761057017641   5.9761057017641   5.9151201248000
O  3.2014540131725   3.2014540131725   0.0000000000000
O  3.2014540131725   3.2014540131725   2.9575600624000
O  3.2014540131725   3.2014540131725   5.9151201248000
O  3.2014540131725   7.7902339394725   0.0000000000000
O  3.2014540131725   7.7902339394725   2.9575600624000
O  3.2014540131725   7.7902339394725   5.9151201248000
O  7.7902339394725   3.2014540131725   0.0000000000000
O  7.7902339394725   3.2014540131725   2.9575600624000
O  7.7902339394725   3.2014540131725   5.9151201248000
O  7.7902339394725   7.7902339394725   0.0000000000000
O  7.7902339394725   7.7902339394725   2.9575600624000
O  7.7902339394725   7.7902339394725   5.9151201248000
O  0.9070641876859   3.6817158762775   1.4787800312000
O  0.9070641876859   3.6817158762775   4.4363400936000
O  0.9070641876859   3.6817158762775   7.3939001560000
O  0.9070641876859   8.2704958025775   1.4787800312000
O  0.9070641876859   8.2704958025775   4.4363400936000
O  0.9070641876859   8.2704958025775   7.3939001560000
O  5.4958441139859   3.6817158762775   1.4787800312000
O  5.4958441139859   3.6817158762775   4.4363400936000
O  5.4958441139859   3.6817158762775   7.3939001560000
O  5.4958441139859   8.2704958025775   1.4787800312000
O  5.4958441139859   8.2704958025775   4.4363400936000
O  5.4958441139859   8.2704958025775   7.3939001560000
O  3.6817158762775   0.9070641876859   1.4787800312000
O  3.6817158762775   0.9070641876859   4.4363400936000
O  3.6817158762775   0.9070641876859   7.3939001560000
O  3.6817158762775   5.4958441139859   1.4787800312000
O  3.6817158762775   5.4958441139859   4.4363400936000
O  3.6817158762775   5.4958441139859   7.3939001560000
O  8.2704958025775   0.9070641876859   1.4787800312000
O  8.2704958025775   0.9070641876859   4.4363400936000
O  8.2704958025775   0.9070641876859   7.3939001560000
O  8.2704958025775   5.4958441139859   1.4787800312000
O  8.2704958025775   5.4958441139859   4.4363400936000
O  8.2704958025775   5.4958441139859   7.3939001560000
K_POINTS automatic
2 2 2 0 0 0

